c Benchmark problem 04
c UNSAT instance - unsatisfiable boolean formula
c Contains contradictory clauses forming an unsolvable system
c Generated for SAT solver validation testing
c Variables: 7, Clauses: 12
p cnf 7 12
1 2 3 0
-1 2 3 0
1 -2 3 0
1 2 -3 0
-1 -2 3 0
-1 2 -3 0
1 -2 -3 0
-1 -2 -3 0
4 5 0
-4 5 0
4 -5 0
-4 -5 0